instances/p2/p2_10_3-1.dzn
Alphabet = {A,C,G,T};
ns = 10;
nc = 3;
neighbours = [| I(C),I(T),Null | I(C),I(A),Null | I(C),I(A),Null | I(G),I(A),I(T) | Null,Null,Null | I(C),Null,Null | I(C),Null,Null | I(C),I(A),I(T) | I(A),I(T),Null | Null,Null,Null |];
